146
1000000
77896
140087
234348
167818
201627
447133
470665
378990
206993
207181
216349
172278
160760
231245
285882
29942
43901
213460
61151
2650
338865
114273
55923
309813
403313
464838
161386
246075
88958
196548
463893
395764
216431
416942
390293
83128
496882
142176
39428
152737
168114
192928
187559
294286
62545
326199
118313
397913
301699
353587
204407
163002
74276
3082
65087
391253
471756
142588
248799
171139
229542
342733
50287
376806
378152
23869
121704
237700
132057
184125
89801
29117
254565
42938
278040
21939
142482
126022
7818
192386
140916
168939
453724
175007
212244
363946
30159
226076
177806
187385
306554
141865
253716
166650
379596
463890
118743
474250
128121
50332
171928
178931
195734
76757
290495
454856
240240
18300
192259
246753
360370
18802
173225
406329
138674
153604
357228
330584
368333
379637
74448
180342
91126
248045
105697
22530
73837
234620
268464
391365
284403
84716
70054
92556
50122
400562
160461
23589
164844
154065
322041
195295
37200
372
109576
58075
